5 
4 
2 
2 
3 
6 
3 
6 
2 
5 
5 
2 
6 
4 
5 
4 
6 
7 
5 
1 
6 
5 
7 
6 
5 
6 
7 
6 
6 
7 
5 
5 
4 
3 
9 
4 
6 
5 
4 
1 
9 
3 
1 
2 
2 
3 
4 
9 
5 
6 
8 
4 
9 
4 
8 
7 
3 
6 
5 
3 
7 
5 
5 
4 
5 
4 
3 
4 
4 
7 
3 
5 
7 
8 
9 
6 
6 
6 
4 
4 
10 
7 
10 
3 
2 
3 
4 
2 
10 
2 
7 
2 
4 
5 
5 
3 
2 
6 
3 
4 
